     30      1      9    128     10
     40
     11     25     18     26     21     27     22      0     10     21      9     13     18      6     11     27     26      6      2      3      4      2     23      4     13      6     24      6      2     17     15      2     12      5      2     11      5     25      4      0     17     15     15     29     26     19      3     12      0     28     10      9      0      7     25     19      3     16     18      9      8     29     19     11     21      2     21     29     23     15     18     29     14      6     21      4     14      3      5      0      2     13      3     24     17      1      7     13     20     17     28      7     19      5     17      1     11     29     21     18     22     10     12     17     14      5     14      9     22      1     13     16      2     11     21      9     23     13     19      3
     72      7     59     48     33     38     62     25     61      1     79     75     76     39     56     44     31     24     83     78     65     65     43     16     63     11     -9     59     11     49
      4     15	    116     65      8      9      8      0     76      0      0      0      0      0     31      0      0      0      0      0      0     13      0      0     69      0      1     29      0      0     -3     18      0      0      0      0      0
      6     11	    371    201      7      9      1     76      0      0      0      0      0    -60      0    262    166      0      0      0      0      0    160      0      0    112      0      0      0      0    -57      0      0      0    182      0      0
      2     12	    112     65      3      4      6      0      0      0      0      0      0     80      0     74      0      0      0      0      0      0      0      0      0      0      0      0      0     18      0      0      0      0      0     55      0
      1     10	    445    122      6      7      3      0      0      0      0      0      0     99      0      0    -11      0      0      0    152      0      0      0      0     64      0     74      0     19      0      0      0    103      0      0      0
      4     12	    454     62      6      8      7      0      0      0      0      0    288      0     72      0      0      0     89      0      0      0    209      0      0      0      0      0      0      0    210     58    250      0      0    -16      0
      2     10	    445    254      3      4      2      0      0      0      0    288      0      0      0      0      0      0      0    195      0      0    132      0      0      0      0     10      0      0      0      0      0      0      0      0    137
      2     15	    444    305      3      8      8      0    -60     80     99      0      0      0      0      0      0      0     69      0      0      0      0      0      0      0     47     66      0      0      0      0      0      0      0      0      0
      5     13	    144     77      8      8      4     31      0      0      0     72      0      0      0      0      0     84      0      0      0      0      0      0      0      0      0     68      0      0      0      0     40      0     49      0      0
      6     14	    491    211      7      7      4      0    262     74      0      0      0      0      0      0      0     24      0    141      0      0      0    164      0      0     59     71      0      0    -68      0      0      0      0      0      0
      5     10	    240    152      8      8      1      0    166      0    -11      0      0      0      0      0      0      0      0      0     23      0    160      0     63      0      0      7      0      0    156      0      0    106      0      0    139
      5     12	    357    147      5      7      1      0      0      0      0      0      0      0     84     24      0      0      0      0      0      0      0      0      0      0      0      0      0    -19      0      0      0      0     23      0      0
      2     15	    123     77      7      7      9      0      0      0      0     89      0     69      0      0      0      0      0      0      0      0      0      0      0      0      0      0      0      0     58      0     22      0      0      0      0
      5     14	    248    166      5      9      3      0      0      0      0      0    195      0      0    141      0      0      0      0      0      0      0      0      0      0      0     32      0      0      0      0      0      0      0     52     85
      1     10	    321    151      5      8      4      0      0      0    152      0      0      0      0      0     23      0      0      0      0      0      0      0      0      0      0      0      0      0      0      0      0      0      0      0      0
      2     15	    395    231      8      9      2     13      0      0      0      0      0      0      0      0      0      0      0      0      0      0      0      0      0      0      0      0      0      0      0      0      0      0      0      0      0
      1     11	    468     79      3      8      4      0    160      0      0    209    132      0      0      0    160      0      0      0      0      0      0      0      0      0      0      0      0      0      0      0      0      0      0      0    138
      4     10	    387    142      5      9      1      0      0      0      0      0      0      0      0    164      0      0      0      0      0      0      0      0      0      0      0      0      0      0    101      0      0      0    104    164    157
      6     14	    468    199      9      9      5     69      0      0      0      0      0      0      0      0     63      0      0      0      0      0      0      0      0      0      0      0      0      0      0      0    191      0     51      0      0
      4     12	    140     60      5      8      6      0    112      0     64      0      0      0      0      0      0      0      0      0      0      0      0      0      0      0     32      0      0      0      0    -16      0      0      0      0      3
      5     11	    340    101      9      9      8      1      0      0      0      0      0     47      0     59      0      0      0      0      0      0      0      0      0     32      0     47      0      0      0      0    -10      0      0      0    174
      2     12	    108     59      3      9      2     29      0      0     74      0     10     66     68     71      7      0      0     32      0      0      0      0      0      0     47      0      0      0      0      0      0      0     82      0      0
      5     10	    426    286      6      9      3      0      0      0      0      0      0      0      0      0      0      0      0      0      0      0      0      0      0      0      0      0      0      0    -56      0    259      0      0     74      0
      6     13	    104     67      6      9      8      0      0     18     19      0      0      0      0      0      0    -19      0      0      0      0      0      0      0      0      0      0      0      0      0      0      0      0     16     63      0
      3     10	    403    242      5      9      2     -3    -57      0      0    210      0      0      0    -68    156      0     58      0      0      0      0    101      0      0      0      0    -56      0      0      0      0      0      0      0      0
      6     13	    282     93      7      9      4     18      0      0      0     58      0      0      0      0      0      0      0      0      0      0      0      0      0    -16      0      0      0      0      0      0      0      0      0      0      0
      2     15	    435    185      9      9      3      0      0      0      0    250      0      0     40      0      0      0     22      0      0      0      0      0    191      0    -10      0    259      0      0      0      0      0     78      0     66
      1     10	    326    121      5      9      4      0      0      0    103      0      0      0      0      0    106      0      0      0      0      0      0      0      0      0      0      0      0      0      0      0      0      0      0      0     56
      6     10	    241    128      9      9     10      0    182      0      0      0      0      0     49      0      0     23      0      0      0      0      0    104     51      0      0     82      0     16      0      0     78      0      0      0    103
      6     13	    210    141      6      8     10      0      0     55      0    -16      0      0      0      0      0      0      0     52      0      0      0    164      0      0      0      0     74     63      0      0      0      0      0      0      0
      2     13	    427    119      7      9      6      0      0      0      0      0    137      0      0      0    139      0      0     85      0      0    138    157      0      3    174      0      0      0      0      0     66     56    103      0      0